\Problem name: IloCplex

Maximize
 obj: id633
Subject To
 id124: id1 + id2 + id3 + id4 + id5 + id6 + id7 + id8  = 3
 id126: id9 + id10 + id11 + id12 + id13 + id14 + id15 + id16  = 5
 id128: id17 + id18 + id19 + id20 + id21 + id22 + id23 + id24  = 2
 id130: id25 + id26 + id27 + id28 + id29 + id30 + id31 + id32  = 3
 id132: id33 + id34 + id35 + id36 + id37 + id38 + id39 + id40  = 4
 id134: id41 + id42 + id43 + id44 + id45 + id46 + id47 + id48  = 2
 id136: id49 + id50 + id51 + id52 + id53 + id54 + id55 + id56  = 0
 id138: id57 + id58 + id59 + id60 + id61 + id62 + id63 + id64  = 1
 id140: id65 + id66 + id67 + id68 + id69 + id70 + id71 + id72  = 2
 id142: id73 + id74 + id75 + id76 + id77 + id78 + id79 + id80  = 1
 id144: id81 + id82 + id83 + id84 + id85 + id86 + id87 + id88  = 2
 id146: id89 + id90 + id91 + id92 + id93 + id94 + id95 + id96  = 2
 id148: id97 + id98 + id99 + id100 + id101 + id102 + id103 + id104  = 1
 id150: id105 + id106 + id107 + id108 + id109 + id110 + id111 + id112  = 0
 id152: id113 + id114 + id115 + id116 + id117 + id118 + id119 + id120  = 1
 id155: - id1 - id9 + 2 id41 <= 0
 id158: id1 + id9 - 2 id41 <= 1
 id161: - id2 - id10 + 2 id42 <= 0
 id164: id2 + id10 - 2 id42 <= 1
 id167: - id3 - id11 + 2 id43 <= 0
 id170: id3 + id11 - 2 id43 <= 1
 id173: - id4 - id12 + 2 id44 <= 0
 id176: id4 + id12 - 2 id44 <= 1
 id179: - id5 - id13 + 2 id45 <= 0
 id182: id5 + id13 - 2 id45 <= 1
 id185: - id6 - id14 + 2 id46 <= 0
 id188: id6 + id14 - 2 id46 <= 1
 id191: - id7 - id15 + 2 id47 <= 0
 id194: id7 + id15 - 2 id47 <= 1
 id197: - id8 - id16 + 2 id48 <= 0
 id200: id8 + id16 - 2 id48 <= 1
 id203: - id1 - id17 + 2 id49 <= 0
 id206: id1 + id17 - 2 id49 <= 1
 id209: - id2 - id18 + 2 id50 <= 0
 id212: id2 + id18 - 2 id50 <= 1
 id215: - id3 - id19 + 2 id51 <= 0
 id218: id3 + id19 - 2 id51 <= 1
 id221: - id4 - id20 + 2 id52 <= 0
 id224: id4 + id20 - 2 id52 <= 1
 id227: - id5 - id21 + 2 id53 <= 0
 id230: id5 + id21 - 2 id53 <= 1
 id233: - id6 - id22 + 2 id54 <= 0
 id236: id6 + id22 - 2 id54 <= 1
 id239: - id7 - id23 + 2 id55 <= 0
 id242: id7 + id23 - 2 id55 <= 1
 id245: - id8 - id24 + 2 id56 <= 0
 id248: id8 + id24 - 2 id56 <= 1
 id251: - id1 - id25 + 2 id57 <= 0
 id254: id1 + id25 - 2 id57 <= 1
 id257: - id2 - id26 + 2 id58 <= 0
 id260: id2 + id26 - 2 id58 <= 1
 id263: - id3 - id27 + 2 id59 <= 0
 id266: id3 + id27 - 2 id59 <= 1
 id269: - id4 - id28 + 2 id60 <= 0
 id272: id4 + id28 - 2 id60 <= 1
 id275: - id5 - id29 + 2 id61 <= 0
 id278: id5 + id29 - 2 id61 <= 1
 id281: - id6 - id30 + 2 id62 <= 0
 id284: id6 + id30 - 2 id62 <= 1
 id287: - id7 - id31 + 2 id63 <= 0
 id290: id7 + id31 - 2 id63 <= 1
 id293: - id8 - id32 + 2 id64 <= 0
 id296: id8 + id32 - 2 id64 <= 1
 id299: - id1 - id33 + 2 id65 <= 0
 id302: id1 + id33 - 2 id65 <= 1
 id305: - id2 - id34 + 2 id66 <= 0
 id308: id2 + id34 - 2 id66 <= 1
 id311: - id3 - id35 + 2 id67 <= 0
 id314: id3 + id35 - 2 id67 <= 1
 id317: - id4 - id36 + 2 id68 <= 0
 id320: id4 + id36 - 2 id68 <= 1
 id323: - id5 - id37 + 2 id69 <= 0
 id326: id5 + id37 - 2 id69 <= 1
 id329: - id6 - id38 + 2 id70 <= 0
 id332: id6 + id38 - 2 id70 <= 1
 id335: - id7 - id39 + 2 id71 <= 0
 id338: id7 + id39 - 2 id71 <= 1
 id341: - id8 - id40 + 2 id72 <= 0
 id344: id8 + id40 - 2 id72 <= 1
 id347: - id9 - id17 + 2 id73 <= 0
 id350: id9 + id17 - 2 id73 <= 1
 id353: - id10 - id18 + 2 id74 <= 0
 id356: id10 + id18 - 2 id74 <= 1
 id359: - id11 - id19 + 2 id75 <= 0
 id362: id11 + id19 - 2 id75 <= 1
 id365: - id12 - id20 + 2 id76 <= 0
 id368: id12 + id20 - 2 id76 <= 1
 id371: - id13 - id21 + 2 id77 <= 0
 id374: id13 + id21 - 2 id77 <= 1
 id377: - id14 - id22 + 2 id78 <= 0
 id380: id14 + id22 - 2 id78 <= 1
 id383: - id15 - id23 + 2 id79 <= 0
 id386: id15 + id23 - 2 id79 <= 1
 id389: - id16 - id24 + 2 id80 <= 0
 id392: id16 + id24 - 2 id80 <= 1
 id395: - id9 - id25 + 2 id81 <= 0
 id398: id9 + id25 - 2 id81 <= 1
 id401: - id10 - id26 + 2 id82 <= 0
 id404: id10 + id26 - 2 id82 <= 1
 id407: - id11 - id27 + 2 id83 <= 0
 id410: id11 + id27 - 2 id83 <= 1
 id413: - id12 - id28 + 2 id84 <= 0
 id416: id12 + id28 - 2 id84 <= 1
 id419: - id13 - id29 + 2 id85 <= 0
 id422: id13 + id29 - 2 id85 <= 1
 id425: - id14 - id30 + 2 id86 <= 0
 id428: id14 + id30 - 2 id86 <= 1
 id431: - id15 - id31 + 2 id87 <= 0
 id434: id15 + id31 - 2 id87 <= 1
 id437: - id16 - id32 + 2 id88 <= 0
 id440: id16 + id32 - 2 id88 <= 1
 id443: - id9 - id33 + 2 id89 <= 0
 id446: id9 + id33 - 2 id89 <= 1
 id449: - id10 - id34 + 2 id90 <= 0
 id452: id10 + id34 - 2 id90 <= 1
 id455: - id11 - id35 + 2 id91 <= 0
 id458: id11 + id35 - 2 id91 <= 1
 id461: - id12 - id36 + 2 id92 <= 0
 id464: id12 + id36 - 2 id92 <= 1
 id467: - id13 - id37 + 2 id93 <= 0
 id470: id13 + id37 - 2 id93 <= 1
 id473: - id14 - id38 + 2 id94 <= 0
 id476: id14 + id38 - 2 id94 <= 1
 id479: - id15 - id39 + 2 id95 <= 0
 id482: id15 + id39 - 2 id95 <= 1
 id485: - id16 - id40 + 2 id96 <= 0
 id488: id16 + id40 - 2 id96 <= 1
 id491: - id17 - id25 + 2 id97 <= 0
 id494: id17 + id25 - 2 id97 <= 1
 id497: - id18 - id26 + 2 id98 <= 0
 id500: id18 + id26 - 2 id98 <= 1
 id503: - id19 - id27 + 2 id99 <= 0
 id506: id19 + id27 - 2 id99 <= 1
 id509: - id20 - id28 + 2 id100 <= 0
 id512: id20 + id28 - 2 id100 <= 1
 id515: - id21 - id29 + 2 id101 <= 0
 id518: id21 + id29 - 2 id101 <= 1
 id521: - id22 - id30 + 2 id102 <= 0
 id524: id22 + id30 - 2 id102 <= 1
 id527: - id23 - id31 + 2 id103 <= 0
 id530: id23 + id31 - 2 id103 <= 1
 id533: - id24 - id32 + 2 id104 <= 0
 id536: id24 + id32 - 2 id104 <= 1
 id539: - id17 - id33 + 2 id105 <= 0
 id542: id17 + id33 - 2 id105 <= 1
 id545: - id18 - id34 + 2 id106 <= 0
 id548: id18 + id34 - 2 id106 <= 1
 id551: - id19 - id35 + 2 id107 <= 0
 id554: id19 + id35 - 2 id107 <= 1
 id557: - id20 - id36 + 2 id108 <= 0
 id560: id20 + id36 - 2 id108 <= 1
 id563: - id21 - id37 + 2 id109 <= 0
 id566: id21 + id37 - 2 id109 <= 1
 id569: - id22 - id38 + 2 id110 <= 0
 id572: id22 + id38 - 2 id110 <= 1
 id575: - id23 - id39 + 2 id111 <= 0
 id578: id23 + id39 - 2 id111 <= 1
 id581: - id24 - id40 + 2 id112 <= 0
 id584: id24 + id40 - 2 id112 <= 1
 id587: - id25 - id33 + 2 id113 <= 0
 id590: id25 + id33 - 2 id113 <= 1
 id593: - id26 - id34 + 2 id114 <= 0
 id596: id26 + id34 - 2 id114 <= 1
 id599: - id27 - id35 + 2 id115 <= 0
 id602: id27 + id35 - 2 id115 <= 1
 id605: - id28 - id36 + 2 id116 <= 0
 id608: id28 + id36 - 2 id116 <= 1
 id611: - id29 - id37 + 2 id117 <= 0
 id614: id29 + id37 - 2 id117 <= 1
 id617: - id30 - id38 + 2 id118 <= 0
 id620: id30 + id38 - 2 id118 <= 1
 id623: - id31 - id39 + 2 id119 <= 0
 id626: id31 + id39 - 2 id119 <= 1
 id629: - id32 - id40 + 2 id120 <= 0
 id632: id32 + id40 - 2 id120 <= 1
Bounds
      id633 = 0
 0 <= id1 <= 1
 0 <= id2 <= 1
 0 <= id3 <= 1
 0 <= id4 <= 1
 0 <= id5 <= 1
 0 <= id6 <= 1
 0 <= id7 <= 1
 0 <= id8 <= 1
 0 <= id9 <= 1
 0 <= id10 <= 1
 0 <= id11 <= 1
 0 <= id12 <= 1
 0 <= id13 <= 1
 0 <= id14 <= 1
 0 <= id15 <= 1
 0 <= id16 <= 1
 0 <= id17 <= 1
 0 <= id18 <= 1
 0 <= id19 <= 1
 0 <= id20 <= 1
 0 <= id21 <= 1
 0 <= id22 <= 1
 0 <= id23 <= 1
 0 <= id24 <= 1
 0 <= id25 <= 1
 0 <= id26 <= 1
 0 <= id27 <= 1
 0 <= id28 <= 1
 0 <= id29 <= 1
 0 <= id30 <= 1
 0 <= id31 <= 1
 0 <= id32 <= 1
 0 <= id33 <= 1
 0 <= id34 <= 1
 0 <= id35 <= 1
 0 <= id36 <= 1
 0 <= id37 <= 1
 0 <= id38 <= 1
 0 <= id39 <= 1
 0 <= id40 <= 1
 0 <= id41 <= 1
 0 <= id42 <= 1
 0 <= id43 <= 1
 0 <= id44 <= 1
 0 <= id45 <= 1
 0 <= id46 <= 1
 0 <= id47 <= 1
 0 <= id48 <= 1
 0 <= id49 <= 1
 0 <= id50 <= 1
 0 <= id51 <= 1
 0 <= id52 <= 1
 0 <= id53 <= 1
 0 <= id54 <= 1
 0 <= id55 <= 1
 0 <= id56 <= 1
 0 <= id57 <= 1
 0 <= id58 <= 1
 0 <= id59 <= 1
 0 <= id60 <= 1
 0 <= id61 <= 1
 0 <= id62 <= 1
 0 <= id63 <= 1
 0 <= id64 <= 1
 0 <= id65 <= 1
 0 <= id66 <= 1
 0 <= id67 <= 1
 0 <= id68 <= 1
 0 <= id69 <= 1
 0 <= id70 <= 1
 0 <= id71 <= 1
 0 <= id72 <= 1
 0 <= id73 <= 1
 0 <= id74 <= 1
 0 <= id75 <= 1
 0 <= id76 <= 1
 0 <= id77 <= 1
 0 <= id78 <= 1
 0 <= id79 <= 1
 0 <= id80 <= 1
 0 <= id81 <= 1
 0 <= id82 <= 1
 0 <= id83 <= 1
 0 <= id84 <= 1
 0 <= id85 <= 1
 0 <= id86 <= 1
 0 <= id87 <= 1
 0 <= id88 <= 1
 0 <= id89 <= 1
 0 <= id90 <= 1
 0 <= id91 <= 1
 0 <= id92 <= 1
 0 <= id93 <= 1
 0 <= id94 <= 1
 0 <= id95 <= 1
 0 <= id96 <= 1
 0 <= id97 <= 1
 0 <= id98 <= 1
 0 <= id99 <= 1
 0 <= id100 <= 1
 0 <= id101 <= 1
 0 <= id102 <= 1
 0 <= id103 <= 1
 0 <= id104 <= 1
 0 <= id105 <= 1
 0 <= id106 <= 1
 0 <= id107 <= 1
 0 <= id108 <= 1
 0 <= id109 <= 1
 0 <= id110 <= 1
 0 <= id111 <= 1
 0 <= id112 <= 1
 0 <= id113 <= 1
 0 <= id114 <= 1
 0 <= id115 <= 1
 0 <= id116 <= 1
 0 <= id117 <= 1
 0 <= id118 <= 1
 0 <= id119 <= 1
 0 <= id120 <= 1
Binaries
 id1  id2  id3  id4  id5  id6  id7  id8  id9  id10  id11  id12  id13  id14 
 id15  id16  id17  id18  id19  id20  id21  id22  id23  id24  id25  id26  id27 
 id28  id29  id30  id31  id32  id33  id34  id35  id36  id37  id38  id39  id40 
 id41  id42  id43  id44  id45  id46  id47  id48  id49  id50  id51  id52  id53 
 id54  id55  id56  id57  id58  id59  id60  id61  id62  id63  id64  id65  id66 
 id67  id68  id69  id70  id71  id72  id73  id74  id75  id76  id77  id78  id79 
 id80  id81  id82  id83  id84  id85  id86  id87  id88  id89  id90  id91  id92 
 id93  id94  id95  id96  id97  id98  id99  id100  id101  id102  id103  id104 
 id105  id106  id107  id108  id109  id110  id111  id112  id113  id114  id115 
 id116  id117  id118  id119  id120 
End
